(set-logic QF_S)
(declare-fun var0 () Int)
(declare-fun var1 () Int)
(declare-fun var2 () Int)
(declare-fun var3 () String)
(declare-fun var4 () String)
(declare-fun var5 () Int)
(declare-fun var6 () String)
(declare-fun var7 () String)
(assert (<= var0 var1))
(assert (not (> var2 200)))
(assert (<= (str.indexof var3 var4 var5) (str.len var6)))
(assert (str.in.re var7 re.allchar))
(check-sat)